Linux optc-04-16 4.15.0-88-generic #88-Ubuntu SMP Tue Feb 11 20:11:34 UTC 2020 x86_64 x86_64 x86_64 GNU/Linux

top - 09:18:15 up 2 days, 19:53,  0 users,  load average: 0,34, 0,80, 0,93
Tasks: 465 gesamt,   1 laufend, 235 schlafend,   0 gestoppt,   0 Zombie
%CPU(s): 17,7 be,  3,9 sy,  0,0 ni, 78,3 un,  0,0 wa,  0,0 hi,  0,0 si,  0,0 st
KiB Spch : 65916192 gesamt, 62666368 frei,   719920 belegt,  2529904 Puff/Cache
KiB Swap:  8388604 gesamt,  8388604 frei,        0 belegt. 64619872 verfü Spch 

  PID USER      PR  NI    VIRT    RES    SHR S  %CPU %MEM     ZEIT+ BEFEHL
41676 bzfhende  20   0   52808   4336   3392 R   6,2  0,0   0:00.03 top
    1 root      20   0  233680   9064   6524 S   0,0  0,0   0:17.71 systemd
    2 root      20   0       0      0      0 S   0,0  0,0   0:00.28 kthreadd
    4 root       0 -20       0      0      0 I   0,0  0,0   0:00.00 kworker/0:+
    5 root      20   0       0      0      0 I   0,0  0,0   0:01.28 kworker/u9+
    7 root       0 -20       0      0      0 I   0,0  0,0   0:00.00 mm_percpu_+
    8 root      20   0       0      0      0 S   0,0  0,0   0:00.23 ksoftirqd/0
    9 root      20   0       0      0      0 I   0,0  0,0   0:39.68 rcu_sched

hard time limit: 00-04:10:00
hard mem limit: 38600

SLURM jobID: 6405158

@01 /nfs/OPTI/bzfhende/instances//./miplib2010_opm2/instances/opm2-z12-s1.mps.gz ===========
-----------------------------
So 8. Mär 09:18:15 CET 2020
-----------------------------
@03 1583655495
@05 7200
SCIP version 7.0.0 [precision: 8 byte] [memory: block] [mode: optimized] [LP solver: CPLEX 12.10.0.0] [GitHash: 297532de76]
Copyright (C) 2002-2020 Konrad-Zuse-Zentrum fuer Informationstechnik Berlin (ZIB)

External codes: 
  Readline 7.0         GNU library for command line editing (gnu.org/s/readline)
  CPLEX 12.10.0.0      Linear Programming Solver developed by IBM (www.cplex.com)
  CppAD 20180000.0     Algorithmic Differentiation of C++ algorithms developed by B. Bell (www.coin-or.org/CppAD)
  ZLIB 1.2.11          General purpose compression library by J. Gailly and M. Adler (zlib.net)
  GMP 6.1.2            GNU Multiple Precision Arithmetic Library developed by T. Granlund (gmplib.org)
  bliss 0.73p          Computing Graph Automorphism Groups by T. Junttila and P. Kaski (http://www.tcs.hut.fi/Software/bliss/)

user parameter file <scip.set> not found - using default parameters

SCIP> 
SCIP> set load /nfs/OPTI/bzfhende/scip-opti/check/../settings/periodic_report.sett
loaded parameter file </nfs/OPTI/bzfhende/scip-opti/check/../settings/periodic_report.set>
SCIP> set limits time 7200
limits/time = 7200
SCIP> set limits nodes 2100000000
limits/nodes = 2100000000
SCIP> set limits memory 35000
limits/memory = 35000
SCIP> set lp advanced threads 1
lp/threads = 1
SCIP> set timing clocktype 1
timing/clocktype = 1
SCIP> set display freq 10000
display/freq = 10000
SCIP> set memory savefac 1.0
memory/savefac = 1
SCIP> set save /nfs/OPTI/bzfhende/scip-opti/check/treesize.prediction.opm2/bzfhennde.instancegroups_opm2.139_opm2-z12-s1.scip.M620v2.periodic_report.set
saved parameter file </nfs/OPTI/bzfhende/scip-opti/check/treesize.prediction.opm2/bzfhende.instancegroups_opm2.139_opm2-z12-s1.scip.M620v2.periodic_report.set>
SCIP> read /nfs/OPTI/bzfhende/instances//./miplib2010_opm2/instances/opm2-z12-s1..mps.gz

read problem </nfs/OPTI/bzfhende/instances//./miplib2010_opm2/instances/opm2-z12-s1.mps.gz>
============

original problem has 10800 variables (10800 bin, 0 int, 0 impl, 0 cont) and 319508 constraints
SCIP> display parameters

number of parameters = 2603
non-default parameter settings:
display/freq = 10000
limits/time = 7200
limits/nodes = 2100000000
limits/memory = 35000
lp/threads = 1
memory/savefac = 1
timing/clocktype = 1
estimation/restarts/restartpolicy = n
estimation/restarts/restartlimit = 0
estimation/reportfreq = 100
estimation/treeprofile/enabled = TRUE

SCIP> optimize

feasible solution found by trivial heuristic after 0.4 seconds, objective value 0.000000e+00
presolving:
(round 1, fast)       398 del vars, 18974 del conss, 0 add conss, 0 chg bounds, 0 chg sides, 0 chg coeffs, 0 upgd conss, 0 impls, 300482 clqs
(round 2, fast)       410 del vars, 19802 del conss, 0 add conss, 0 chg bounds, 0 chg sides, 0 chg coeffs, 0 upgd conss, 0 impls, 299674 clqs
(round 3, exhaustive) 411 del vars, 19875 del conss, 0 add conss, 0 chg bounds, 0 chg sides, 0 chg coeffs, 299633 upgd conss, 0 impls, 299625 clqs
(round 4, fast)       429 del vars, 20293 del conss, 0 add conss, 0 chg bounds, 0 chg sides, 0 chg coeffs, 299633 upgd conss, 0 impls, 298743 clqs
(round 5, fast)       431 del vars, 20802 del conss, 0 add conss, 0 chg bounds, 0 chg sides, 0 chg coeffs, 299633 upgd conss, 0 impls, 298645 clqs
(round 6, medium)     435 del vars, 21051 del conss, 0 add conss, 0 chg bounds, 0 chg sides, 0 chg coeffs, 299633 upgd conss, 0 impls, 298449 clqs
   (56.6s) probing: 1000/10365 (9.6%) - 0 fixings, 0 aggregations, 345574 implications, 0 bound changes
   (56.6s) probing: 1001/10365 (9.7%) - 0 fixings, 0 aggregations, 345943 implications, 0 bound changes
   (56.6s) probing aborted: 1000/1000 successive useless probings
   (62.4s) symmetry computation started: requiring (bin +, int +, cont +), (fixed: bin -, int -, cont -)
   (62.8s) no symmetry present
presolving (7 rounds: 7 fast, 3 medium, 2 exhaustive):
 435 deleted vars, 21051 deleted constraints, 0 added constraints, 0 tightened bounds, 0 added holes, 0 changed sides, 0 changed coefficients
 0 implications, 644392 cliques
presolved problem has 10365 variables (10365 bin, 0 int, 0 impl, 0 cont) and 298457 constraints
      8 constraints of type <knapsack>
 298449 constraints of type <setppc>
transformed objective value is always integral (scale: 1)
Presolving Time: 62.50
transformed 1/1 original solutions to the transformed problem space

 time | node  | left  |LP iter|LP it/n|mem/heur|mdpt |vars |cons |rows |cuts |sepa|confs|strbr|  dualbound   | primalbound  |  gap   | compl. 
p65.1s|     1 |     0 |     0 |     - | vbounds|   0 |  10k| 298k| 298k|   0 |  0 |   4 |   0 |-9.461210e+05 |-3.475100e+04 |2622.57%| unknown
  150s|     1 |     0 | 56131 |     - |  2418M |   0 |  10k| 298k| 298k|   0 |  0 |  13 |   0 |-8.716052e+04 |-3.475100e+04 | 150.81%| unknown
r 153s|     1 |     0 | 56131 |     - |shifting|   0 |  10k| 298k| 298k|   0 |  0 |  14 |   0 |-8.716052e+04 |-3.512200e+04 | 148.17%| unknown
i 153s|     1 |     0 | 56131 |     - |  oneopt|   0 |  10k| 298k| 298k|   0 |  0 |  14 |   0 |-8.716052e+04 |-3.676200e+04 | 137.09%| unknown
d2267s|     1 |     0 |148084 |     - |farkasdi|   0 |  10k| 298k| 298k|   0 |  2 |  14 |   0 |-8.716052e+04 |-5.444900e+04 |  60.08%| unknown
d3748s|     1 |     0 |207045 |     - |conflict|   0 |  10k| 298k| 298k|   0 |  2 |  14 |   0 |-8.716052e+04 |-5.491600e+04 |  58.72%| unknown
 3772s|     1 |     0 |207045 |     - |  2515M |   0 |  10k| 298k| 298k|   0 |  2 |  14 |   0 |-8.716052e+04 |-5.491600e+04 |  58.72%| unknown
i3774s|     1 |     0 |207045 |     - |  oneopt|   0 |  10k| 298k| 298k|   0 |  2 |  14 |   0 |-8.716052e+04 |-5.498400e+04 |  58.52%| unknown
 4255s|     1 |     2 |207045 |     - |  2520M |   0 |  10k| 298k| 298k|   0 |  4 |  14 |  32 |-8.593120e+04 |-5.498400e+04 |  56.28%| unknown

SCIP Status        : solving was interrupted [time limit reached]
Solving Time (sec) : 7200.10
Solving Nodes      : 7
Primal Bound       : -5.49840000000000e+04 (8 solutions)
Dual Bound         : -8.22696102407136e+04
Gap                : 49.62 %

SCIP> display statistics

SCIP Status        : solving was interrupted [time limit reached]
Total Time         :    7201.04
  solving          :    7200.10
  presolving       :      62.50 (included in solving)
  reading          :       0.94
  copying          :       0.39 (1 #copies) (minimal 0.39, maximal 0.39, average 0.39)
Original Problem   :
  Problem name     : opm2-z12-s1
  Variables        : 10800 (10800 binary, 0 integer, 0 implicit integer, 0 continuous)
  Constraints      : 319508 initial, 319508 maximal
  Objective        : minimize, 10736 non-zeros (abs.min = 1, abs.max = 571)
Presolved Problem  :
  Problem name     : t_opm2-z12-s1
  Variables        : 10365 (10365 binary, 0 integer, 0 implicit integer, 0 continuous)
  Constraints      : 298457 initial, 298475 maximal
  Objective        : minimize, 10302 non-zeros (abs.min = 1, abs.max = 571)
  Nonzeros         : 679798 constraint, 1288784 clique table
Presolvers         :   ExecTime  SetupTime  Calls  FixedVars   AggrVars   ChgTypes  ChgBounds   AddHoles    DelCons    AddCons   ChgSides   ChgCoefs
  boundshift       :       0.00       0.00      0          0          0          0          0          0          0          0          0          0
  convertinttobin  :       0.00       0.00      0          0          0          0          0          0          0          0          0          0
  domcol           :       0.17       0.00      1          0          0          0          0          0          0          0          0          0
  dualagg          :       0.00       0.00      0          0          0          0          0          0          0          0          0          0
  dualcomp         :       0.00       0.00      0          0          0          0          0          0          0          0          0          0
  dualinfer        :       0.00       0.00      0          0          0          0          0          0          0          0          0          0
  dualsparsify     :       5.74       0.00      1          0          0          0          0          0          0          0          0          0
  gateextraction   :       0.00       0.00      0          0          0          0          0          0          0          0          0          0
  implics          :       0.00       0.00      3          0          0          0          0          0          0          0          0          0
  inttobinary      :       0.00       0.00      0          0          0          0          0          0          0          0          0          0
  qpkktref         :       0.00       0.00      0          0          0          0          0          0          0          0          0          0
  redvub           :       0.00       0.00      0          0          0          0          0          0          0          0          0          0
  sparsify         :       0.22       0.00      1          0          0          0          0          0          0          0          0          0
  stuffing         :       0.00       0.00      0          0          0          0          0          0          0          0          0          0
  trivial          :       0.01       0.00      7          0          0          0          0          0          0          0          0          0
  tworowbnd        :       0.20       0.00      1          0          0          0          0          0          0          0          0          0
  dualfix          :       0.00       0.00      7        400          0          0          0          0          0          0          0          0
  genvbounds       :       0.00       0.00      0          0          0          0          0          0          0          0          0          0
  probing          :      49.70       0.00      1          0          0          0          0          0          0          0          0          0
  pseudoobj        :       0.01       0.00      5          0          0          0          0          0          0          0          0          0
  symmetry         :       0.40       0.00      1          0          0          0          0          0          0          0          0          0
  vbounds          :       0.05       0.00      1          0          0          0          0          0          0          0          0          0
  knapsack         :       1.78       0.00      7          0          0          0          0          0          0          0          0          0
  setppc           :       1.24       0.01      7         24          0          0          0          0       1176          0          0          0
  linear           :       2.65       0.09      4          0         11          0          0          0      19875          0          0          0
  logicor          :       0.00       0.00      0          0          0          0          0          0          0          0          0          0
  benders          :       0.00       0.00      0          0          0          0          0          0          0          0          0          0
  components       :       0.09       0.00      1          0          0          0          0          0          0          0          0          0
  root node        :          -          -      -          0          -          -          0          -          -          -          -          -
Constraints        :     Number  MaxNumber  #Separate #Propagate    #EnfoLP    #EnfoRelax  #EnfoPS    #Check   #ResProp    Cutoffs    DomReds       Cuts    Applied      Conss   Children
  benderslp        :          0          0          0          0          7          0          0         15          0          0          0          0          0          0          0
  integral         :          0          0          0          0          7          0          0         15          0          0          0          0          0          0         14
  knapsack         :          8          8          2      31389          0          0          0         10          1          8          0          0          0          0          0
  setppc           :     298449     298449          2      31370          0          0          0          8      13892          1       1501          0          0          0          0
  logicor          :          0+        18          2        146          0          0          0          0          0          0          0          0          0          0          0
  benders          :          0          0          0          0          0          0          0         10          0          0          0          0          0          0          0
  countsols        :          0          0          0          0          0          0          0         10          0          0          0          0          0          0          0
  components       :          0          0          0          0          0          0          0          0          0          0          0          0          0          0          0
Constraint Timings :  TotalTime  SetupTime   Separate  Propagate     EnfoLP     EnfoPS     EnfoRelax   Check    ResProp    SB-Prop
  benderslp        :       0.00       0.00       0.00       0.00       0.00       0.00       0.00       0.00       0.00       0.00
  integral         :    2583.35       0.00       0.00       0.00    2583.35       0.00       0.00       0.00       0.00       0.00
  knapsack         :      31.09       0.00      28.34       2.65       0.00       0.00       0.00       0.01       0.00       0.09
  setppc           :      13.92       0.01       0.15      12.39       0.00       0.00       0.00       0.09       0.01       1.27
  logicor          :       0.00       0.00       0.00       0.00       0.00       0.00       0.00       0.00       0.00       0.00
  benders          :       0.00       0.00       0.00       0.00       0.00       0.00       0.00       0.00       0.00       0.00
  countsols        :       0.00       0.00       0.00       0.00       0.00       0.00       0.00       0.00       0.00       0.00
  components       :       0.01       0.00       0.00       0.01       0.00       0.00       0.00       0.00       0.00       0.00
Propagators        : #Propagate   #ResProp    Cutoffs    DomReds
  dualfix          :          3          0          0          0
  genvbounds       :          0          0          0          0
  nlobbt           :          0          0          0          0
  obbt             :          0          0          0          0
  probing          :          0          0          0          0
  pseudoobj        :         53          0          0          0
  redcost          :          4          0          0          0
  rootredcost      :          1          0          0          0
  symmetry         :          0          0          0          0
  vbounds          :      23506          0          0          0
Propagator Timings :  TotalTime  SetupTime   Presolve  Propagate    ResProp    SB-Prop
  dualfix          :       0.00       0.00       0.00       0.00       0.00       0.00
  genvbounds       :       0.04       0.00       0.00       0.03       0.00       0.01
  nlobbt           :       0.00       0.00       0.00       0.00       0.00       0.00
  obbt             :       0.00       0.00       0.00       0.00       0.00       0.00
  probing          :      49.70       0.00      49.70       0.00       0.00       0.00
  pseudoobj        :       0.23       0.00       0.01       0.22       0.00       0.00
  redcost          :       0.03       0.00       0.00       0.03       0.00       0.00
  rootredcost      :       0.01       0.00       0.00       0.01       0.00       0.00
  symmetry         :       0.40       0.00       0.40       0.00       0.00       0.00
  vbounds          :       0.07       0.00       0.05       0.00       0.00       0.02
Conflict Analysis  :       Time      Calls    Success    DomReds  Conflicts   Literals    Reconvs ReconvLits   Dualrays   Nonzeros   LP Iters   (pool size: [10000,10000])
  propagation      :       0.06          7          7          -        515     1320.9          0        0.0          -          -          -
  infeasible LP    :       0.00          0          0          -          0        0.0          0        0.0          0        0.0          0
  bound exceed. LP :       0.19          3          1          -         80     1230.3          0        0.0          0        0.0         20
  strong branching :       0.00          0          0          -          0        0.0          0        0.0          -          -          0
  pseudo solution  :       0.00          0          0          -          0        0.0          0        0.0          -          -          -
  applied globally :       0.00          -          -          0         24      627.5          -          -          0          -          -
  applied locally  :          -          -          -          0          0        0.0          -          -          0          -          -
Separators         :   ExecTime  SetupTime      Calls    Cutoffs    DomReds       Cuts    Applied      Conss
  cut pool         :       0.00                     0          -          -          0          -          -    (maximal pool size: 0)
  aggregation      :      31.47       0.00          2          0          0          0          0          0
  cgmip            :       0.00       0.00          0          0          0          0          0          0
  clique           :      12.22       0.00          2          0          0          0          0          0
  closecuts        :       0.00       0.00          0          0          0          0          0          0
  cmir             :       0.00       0.00          0          0          0          0          0          0
  convexproj       :       0.00       0.00          0          0          0          0          0          0
  disjunctive      :       0.00       0.00          0          0          0          0          0          0
  eccuts           :       0.00       0.00          0          0          0          0          0          0
  flowcover        :       0.00       0.00          0          0          0          0          0          0
  gauge            :       0.00       0.00          0          0          0          0          0          0
  gomory           :      83.35       0.00          2          0          0          0          0          0
  impliedbounds    :       0.02       0.00          2          0          0          0          0          0
  intobj           :       0.00       0.00          0          0          0          0          0          0
  mcf              :       0.37       0.00          1          0          0          0          0          0
  oddcycle         :       0.00       0.00          0          0          0          0          0          0
  rapidlearning    :       0.02       0.00          0          0          0          0          0          0
  strongcg         :      82.91       0.00          2          0          0          0          0          0
  zerohalf         :      53.55       0.00          2          0          0          0          0          0
Pricers            :   ExecTime  SetupTime      Calls       Vars
  problem variables:       0.00          -          0          0
Branching Rules    :   ExecTime  SetupTime   BranchLP  BranchExt   BranchPS    Cutoffs    DomReds       Cuts      Conss   Children
  allfullstrong    :       0.00       0.00          0          0          0          0          0          0          0          0
  cloud            :       0.00       0.00          0          0          0          0          0          0          0          0
  distribution     :       0.00       0.00          0          0          0          0          0          0          0          0
  fullstrong       :       0.00       0.00          0          0          0          0          0          0          0          0
  inference        :       0.00       0.00          0          0          0          0          0          0          0          0
  leastinf         :       0.00       0.00          0          0          0          0          0          0          0          0
  lookahead        :       0.00       0.00          0          0          0          0          0          0          0          0
  mostinf          :       0.00       0.00          0          0          0          0          0          0          0          0
  multaggr         :       0.00       0.00          0          0          0          0          0          0          0          0
  nodereopt        :       0.00       0.00          0          0          0          0          0          0          0          0
  pscost           :       0.00       0.00          0          0          0          0          0          0          0          0
  random           :       0.00       0.00          0          0          0          0          0          0          0          0
  relpscost        :    2583.35       0.00          7          0          0          0          0          0          0         14
  vanillafullstrong:       0.00       0.00          0          0          0          0          0          0          0          0
Primal Heuristics  :   ExecTime  SetupTime      Calls      Found       Best
  LP solutions     :       0.00          -          -          0          0
  relax solutions  :       0.00          -          -          0          0
  pseudo solutions :       0.00          -          -          0          0
  strong branching :       0.00          -          -          0          0
  actconsdiving    :       0.00       0.00          0          0          0
  adaptivediving   :       0.00       0.00          0          0          0
  alns             :       1.13       0.00          1          0          0
  bound            :       0.00       0.00          0          0          0
  clique           :       0.41       0.00          1          0          0
  coefdiving       :       0.00       0.00          0          0          0
  completesol      :       0.00       0.00          0          0          0
  conflictdiving   :     450.13       0.00          1          1          1
  crossover        :       0.00       0.00          0          0          0
  dins             :       0.00       0.00          0          0          0
  distributiondivin:       0.00       0.00          0          0          0
  dualval          :       0.00       0.00          0          0          0
  farkasdiving     :    1963.96       0.00          1          1          1
  feaspump         :    1052.85       0.00          1          0          0
  fixandinfer      :       0.00       0.00          0          0          0
  fracdiving       :       0.00       0.00          0          0          0
  gins             :       0.00       0.00          0          0          0
  guideddiving     :       0.00       0.00          0          0          0
  indicator        :       0.00       0.00          0          0          0
  intdiving        :       0.00       0.00          0          0          0
  intshifting      :       0.00       0.00          0          0          0
  linesearchdiving :       0.00       0.00          0          0          0
  localbranching   :       0.00       0.00          0          0          0
  locks            :       0.53       0.00          1          0          0
  lpface           :       0.00       0.00          0          0          0
  mpec             :       0.00       0.00          0          0          0
  multistart       :       0.00       0.00          0          0          0
  mutation         :       0.00       0.00          0          0          0
  nlpdiving        :       0.00       0.00          0          0          0
  objpscostdiving  :       0.00       0.00          0          0          0
  octane           :       0.00       0.00          0          0          0
  ofins            :       0.00       0.00          0          0          0
  oneopt           :       0.10       0.00          3          2          2
  padm             :       0.00       0.00          0          0          0
  proximity        :       0.00       0.00          0          0          0
  pscostdiving     :     382.83       0.00          1          0          0
  randrounding     :       0.47       0.00          2          1          0
  rens             :       0.00       0.00          0          0          0
  reoptsols        :       0.00       0.00          0          0          0
  repair           :       0.00       0.00          0          0          0
  rins             :       0.00       0.00          0          0          0
  rootsoldiving    :       0.00       0.00          0          0          0
  rounding         :       7.94       0.00          8          0          0
  shiftandpropagate:       0.00       0.00          0          0          0
  shifting         :       2.37       0.00          2          1          1
  simplerounding   :       0.00       0.00          8          0          0
  subnlp           :       0.00       0.00          0          0          0
  trivial          :       0.05       0.00          2          1          1
  trivialnegation  :       0.00       0.00          0          0          0
  trustregion      :       0.00       0.00          0          0          0
  trysol           :       0.00       0.00          0          0          0
  twoopt           :       0.00       0.00          0          0          0
  undercover       :       0.00       0.00          0          0          0
  vbounds          :       2.60       0.00          1          1          1
  veclendiving     :       0.00       0.00          0          0          0
  zeroobj          :       0.00       0.00          0          0          0
  zirounding       :       0.28       0.00          6          0          0
  other solutions  :          -          -          -          0          -
Diving (single)    :      Calls      Nodes   LP Iters Backtracks  Conflicts   MinDepth   MaxDepth   AvgDepth  RoundSols  NLeafSols  MinSolDpt  MaxSolDpt  AvgSolDpt
  actconsdiving    :          0          -          -          -          -          -          -          -          -          -          -          -          -
  coefdiving       :          0          -          -          -          -          -          -          -          -          -          -          -          -
  conflictdiving   :          1        398      24383          0          0        399        399      399.0          0          1        399        399      399.0
  distributiondivin:          0          -          -          -          -          -          -          -          -          -          -          -          -
  farkasdiving     :          1        682      91953          0          0        683        683      683.0          0          1        683        683      683.0
  fracdiving       :          0          -          -          -          -          -          -          -          -          -          -          -          -
  guideddiving     :          0          -          -          -          -          -          -          -          -          -          -          -          -
  linesearchdiving :          0          -          -          -          -          -          -          -          -          -          -          -          -
  pscostdiving     :          1        152      21527          1         80        154        154      154.0          0          -          -          -          -
  veclendiving     :          0          -          -          -          -          -          -          -          -          -          -          -          -
Diving (adaptive)  :      Calls      Nodes   LP Iters Backtracks  Conflicts   MinDepth   MaxDepth   AvgDepth  RoundSols  NLeafSols  MinSolDpt  MaxSolDpt  AvgSolDpt
  actconsdiving    :          0          -          -          -          -          -          -          -          -          -          -          -          -
  coefdiving       :          0          -          -          -          -          -          -          -          -          -          -          -          -
  conflictdiving   :          0          -          -          -          -          -          -          -          -          -          -          -          -
  distributiondivin:          0          -          -          -          -          -          -          -          -          -          -          -          -
  farkasdiving     :          0          -          -          -          -          -          -          -          -          -          -          -          -
  fracdiving       :          0          -          -          -          -          -          -          -          -          -          -          -          -
  guideddiving     :          0          -          -          -          -          -          -          -          -          -          -          -          -
  linesearchdiving :          0          -          -          -          -          -          -          -          -          -          -          -          -
  pscostdiving     :          0          -          -          -          -          -          -          -          -          -          -          -          -
  veclendiving     :          0          -          -          -          -          -          -          -          -          -          -          -          -
Neighborhoods      :      Calls  SetupTime  SolveTime SolveNodes       Sols       Best       Exp3  EpsGreedy        UCB TgtFixRate  Opt  Inf Node Stal  Sol  Usr Othr Actv
  rens             :          0       0.00       0.00          0          0          0    0.00000   -1.00000    1.00000      0.900    0    0    0    0    0    0    0    1
  rins             :          0       0.00       0.00          0          0          0    0.00000   -1.00000    1.00000      0.900    0    0    0    0    0    0    0    1
  mutation         :          0       0.00       0.00          0          0          0    0.00000   -1.00000    1.00000      0.900    0    0    0    0    0    0    0    1
  localbranching   :          1       0.57       0.49          0          0          0    0.00000   -1.00000    1.00000      0.700    0    1    0    0    0    0    0    1
  crossover        :          0       0.00       0.00          0          0          0    0.00000   -1.00000    1.00000      0.900    0    0    0    0    0    0    0    1
  proximity        :          0       0.00       0.00          0          0          0    0.00000   -1.00000    1.00000      0.900    0    0    0    0    0    0    0    1
  zeroobjective    :          0       0.00       0.00          0          0          0    0.00000   -1.00000    1.00000      0.900    0    0    0    0    0    0    0    1
  dins             :          0       0.00       0.00          0          0          0    0.00000   -1.00000    1.00000      0.900    0    0    0    0    0    0    0    1
  trustregion      :          0       0.00       0.00          0          0          0    0.00000   -1.00000    1.00000      0.900    0    0    0    0    0    0    0    0
LP                 :       Time      Calls Iterations  Iter/call   Iter/sec  Time-0-It Calls-0-It    ItLimit
  primal LP        :       0.00          0          0       0.00          -       0.00          0
  dual LP          :     395.51          9      69495    9927.86     175.71       0.03          2
  lex dual LP      :       0.00          0          0       0.00          -
  barrier LP       :       0.00          0          0       0.00          -       0.00          0
  resolve instable :       0.00          0          0       0.00          -
  diving/probing LP:    3837.59        735     172441     234.61      44.93
  strong branching :    2576.77        194     166506     858.28      64.62          -          -        296
    (at root node) :          -         32      25182     786.94          -
  conflict analysis:       0.09          2         20      10.00     222.22
B&B Tree           :
  number of runs   :          1
  nodes            :          7 (7 internal, 0 leaves)
  feasible leaves  :          0
  infeas. leaves   :          0
  objective leaves :          0
  nodes (total)    :          7 (7 internal, 0 leaves)
  nodes left       :          8
  max depth        :          4
  max depth (total):          4
  backtracks       :          2 (28.6%)
  early backtracks :          0 (0.0%)
  nodes exc. ref.  :          0 (0.0%)
  delayed cutoffs  :          0
  repropagations   :          0 (0 domain reductions, 0 cutoffs)
  avg switch length:       1.57
  switching time   :       0.01
Estim. Tree Size   :         -1
Estimation Tree    : 15 nodes (7 visited, 7 inner, 0 leaves, 8 open), weight: 0.0000 completed 0.0569
Estimations        :      estim      value      trend resolution     smooth
  wbe              :         -1          -          -          -          -
  tree-profile     :         -1          -          -          -          -
  gap              :         -1    0.66834                     1           
  tree-weight      :         -1    0.00000                     1           
  leaf-frequency   :         -1   -0.07143                     1           
  ssg              :         -1    0.91009                     1           
  open-nodes       :         -1    8.00000                     1           
Root Node          :
  First LP value   : -8.71605152289364e+04
  First LP Iters   :      56131 (672.31 Iter/sec)
  First LP Time    :      83.49
  Final Dual Bound : -8.59311982934642e+04
  Final Root Iters :      56131
  Root LP Estimate : -5.17431964214443e+04
Solution           :
  Solutions found  :          8 (7 improvements)
  First Solution   : +0.00000000000000e+00   (in run 1, after 0 nodes, 0.36 seconds, depth 0, found by <trivial>)
  Gap First Sol.   :   infinite
  Gap Last Sol.    :      58.52 %
  Primal Bound     : -5.49840000000000e+04   (in run 1, after 1 nodes, 3774.02 seconds, depth 0, found by <oneopt>)
  Dual Bound       : -8.22696102407136e+04
  Gap              :      49.62 %
Integrals          :      Total       Avg%
  primal-dual      :  310166.33      43.08
  primal-ref       :          -          - (not evaluated)
  dual-ref         :          -          - (not evaluated)

SCIP> checksol

check best solution
solution is feasible in original problem
Violation          :    absolute    relative
  bounds           : 0.00000e+00 0.00000e+00
  integrality      : 0.00000e+00           -
  LP rows          : 0.00000e+00 0.00000e+00
  constraints      : 0.00000e+00 0.00000e+00

SCIP> write sol /local/tmp/bzfhende-tmpdir/bzfhende.instancegroups_opm2.139_opm2--z12-s1.scip.M620v2.periodic_report.sol

written solution information to file </local/tmp/bzfhende-tmpdir/bzfhende.instancegroups_opm2.139_opm2-z12-s1.scip.M620v2.periodic_report.sol>

SCIP> quit

Read MPS: 1
MIP has 10800 vars and 319508 constraints
Read SOL: 1
Objective value computed by solver: -54984

Integrality tolerance: 1/10000
Linear tolerance: 1/10000
Objective tolerance: 1/10000

Check SOL: Integrality 1 Constraints 1 Objective 1
Maximum violations: Integrality 0 Constraints 0 Objective 0
@04 1583662708
-----------------------------
So 8. Mär 11:18:28 CET 2020
-----------------------------

=ready=
